language ESSENCE' 1.0

letting jobs = 102
letting horizon = 830
letting resourcesRenew = 2
letting resourcesNonrenew = 2
letting resourceLimits = [20, 26, 429, 338]
letting successors = [[2, 3, 4, 5, 6, 7, 8, 11, 13, 14, 19], [31, 24, 23, 21, 20, 18, 17, 16, 12], [31, 24, 22, 17, 16, 10, 9], [31, 24, 23, 21, 16, 12], [31, 27, 24, 20, 9], [31, 27, 24, 9], [31, 29, 25, 17, 12], [36, 26, 24, 20, 15], [29, 25, 21, 12], [36, 35, 34, 33, 32, 29, 25, 21], [36, 35, 34, 33, 32, 29, 25, 21], [38, 35, 34, 33, 32, 30, 28, 26], [36, 35, 33, 32, 29, 28, 26, 25], [38, 36, 35, 32, 29, 27, 21], [38, 35, 34, 33, 32, 31, 29, 28], [35, 32, 29, 28, 27, 25], [48, 41, 35, 32, 30, 28], [48, 38, 35, 29, 28, 26], [48, 35, 32, 28, 26], [48, 42, 40, 39, 38, 29], [48, 40, 28, 26], [48, 40, 38, 26], [48, 43, 39, 37, 35, 34], [48, 42, 40, 29], [48, 43, 42, 39, 38, 37], [47, 43, 42, 41, 39, 37], [49, 47, 46, 43, 42, 40, 39], [47, 45, 43, 42, 37], [47, 45, 43, 41, 37], [55, 46, 42, 39, 36], [41, 40, 39, 37], [55, 51, 49, 47, 46, 42, 39], [51, 48, 47, 45, 37], [55, 51, 49, 47, 46, 45, 44, 42], [62, 51, 49, 46, 45, 40], [62, 53, 51, 49, 47, 45, 44], [62, 55, 53, 49, 46, 44], [65, 56, 55, 52, 51, 50, 47], [64, 62, 53, 45, 44], [64, 63, 55, 53, 50, 44], [64, 62, 61, 58, 56, 55, 54, 53, 51], [65, 64, 62, 59, 58, 54, 53, 50], [64, 61, 58, 56, 53, 52, 51], [69, 65, 61, 60, 59, 58, 52], [69, 63, 59, 56, 52], [60, 59, 58, 56, 50], [72, 69, 64, 63, 59, 58, 57], [70, 69, 63, 57, 54], [77, 73, 64, 57], [70, 61, 57], [73, 72, 63, 57], [57, 54], [84, 72, 69, 66, 60], [84, 74, 73, 72, 71, 67, 66], [73, 69, 67, 60], [70, 57], [84, 79, 74, 71, 67, 66], [74, 73, 66], [87, 78, 77, 68, 67], [77, 75, 74, 68], [91, 85, 84, 79, 78, 77, 76, 75, 72], [84, 81, 74, 68], [84, 75, 66], [84, 71, 70, 67], [84, 81, 78, 77, 71], [87, 81, 68], [91, 90, 89, 83, 82, 80, 75], [91, 90, 88, 83, 80, 76], [100, 79, 71], [91, 90, 85, 83, 82, 75], [101, 91, 90, 89, 88, 82, 80], [100, 90, 89, 86, 83, 82, 81], [101, 99, 82, 80, 79], [99, 91, 87, 82, 78], [100, 99, 94, 93, 92, 81], [100, 99, 98, 89, 82], [100, 96, 93, 92, 90, 89], [95, 93, 92, 89, 88], [94, 93, 89, 88], [86, 85], [101, 97, 95, 88], [95, 94, 93, 92], [101, 98, 93], [98, 96, 92], [98, 94], [95, 92], [100, 94], [96], [97], [99], [98], [102], [102], [102], [102], [102], [102], [102], [102], [102], [102], []]
letting durations = [[0], [8, 9, 9], [3, 7, 9], [2, 5, 7], [8, 9, 9], [4, 7, 8], [3, 4, 9], [7, 9, 10], [1, 3, 3], [2, 3, 7], [2, 5, 10], [2, 7, 8], [4, 6, 9], [1, 7, 9], [2, 7, 7], [1, 3, 9], [5, 6, 8], [1, 2, 10], [3, 5, 10], [5, 9, 10], [3, 3, 10], [3, 9, 10], [2, 4, 4], [2, 7, 10], [1, 6, 10], [3, 8, 10], [9, 10, 10], [1, 7, 8], [2, 9, 10], [3, 5, 8], [1, 3, 7], [4, 5, 9], [4, 6, 10], [6, 8, 10], [2, 4, 8], [1, 5, 10], [2, 3, 8], [2, 6, 10], [3, 4, 9], [1, 3, 4], [1, 4, 5], [2, 5, 6], [2, 9, 10], [1, 2, 5], [5, 5, 10], [2, 3, 10], [4, 6, 9], [7, 8, 9], [4, 7, 9], [1, 3, 8], [5, 9, 9], [4, 5, 10], [5, 6, 6], [7, 9, 10], [1, 6, 9], [1, 3, 4], [2, 5, 6], [5, 9, 10], [4, 7, 9], [4, 6, 8], [4, 5, 6], [7, 8, 9], [1, 6, 10], [3, 8, 10], [2, 4, 10], [3, 4, 8], [1, 2, 5], [3, 4, 5], [1, 7, 8], [5, 8, 9], [2, 8, 9], [1, 4, 8], [1, 8, 10], [3, 5, 7], [1, 5, 10], [3, 4, 5], [3, 6, 7], [8, 9, 9], [1, 8, 9], [2, 3, 7], [1, 9, 10], [1, 2, 9], [7, 7, 7], [5, 7, 8], [5, 5, 10], [4, 4, 5], [2, 9, 10], [3, 3, 9], [3, 8, 10], [6, 8, 10], [4, 7, 7], [3, 8, 9], [3, 5, 6], [3, 4, 6], [2, 5, 5], [3, 3, 8], [7, 9, 10], [4, 9, 10], [3, 8, 9], [2, 3, 5], [1, 1, 8], [0]]
letting resourceUsage = [[[0, 0, 0, 0]], [[1, 0, 0, 3], [0, 3, 0, 2], [1, 0, 0, 2]], [[0, 1, 9, 0], [0, 1, 6, 0], [0, 1, 5, 0]], [[0, 4, 0, 9], [1, 0, 3, 0], [0, 3, 0, 5]], [[0, 4, 5, 0], [0, 3, 4, 0], [1, 0, 0, 5]], [[2, 0, 5, 0], [2, 0, 0, 4], [1, 0, 4, 0]], [[0, 5, 0, 5], [0, 5, 5, 0], [2, 0, 0, 4]], [[3, 0, 6, 0], [0, 3, 0, 7], [2, 0, 5, 0]], [[3, 0, 10, 0], [2, 0, 0, 3], [0, 1, 0, 2]], [[4, 0, 5, 0], [0, 4, 0, 6], [0, 3, 4, 0]], [[2, 0, 10, 0], [2, 0, 7, 0], [2, 0, 0, 1]], [[0, 3, 7, 0], [0, 3, 6, 0], [0, 1, 0, 3]], [[0, 5, 6, 0], [2, 0, 5, 0], [0, 3, 3, 0]], [[0, 4, 7, 0], [0, 3, 6, 0], [2, 0, 0, 2]], [[0, 1, 0, 6], [0, 1, 0, 5], [1, 0, 5, 0]], [[3, 0, 0, 7], [0, 4, 0, 7], [3, 0, 5, 0]], [[2, 0, 0, 8], [0, 4, 4, 0], [0, 2, 4, 0]], [[5, 0, 7, 0], [0, 3, 0, 8], [0, 3, 6, 0]], [[3, 0, 3, 0], [0, 4, 0, 2], [2, 0, 0, 2]], [[3, 0, 5, 0], [0, 3, 3, 0], [0, 3, 2, 0]], [[2, 0, 0, 5], [2, 0, 4, 0], [0, 1, 1, 0]], [[0, 5, 0, 6], [0, 3, 5, 0], [1, 0, 0, 4]], [[0, 5, 9, 0], [0, 4, 5, 0], [4, 0, 1, 0]], [[0, 4, 7, 0], [3, 0, 0, 6], [0, 4, 3, 0]], [[0, 4, 8, 0], [0, 4, 0, 4], [1, 0, 0, 3]], [[1, 0, 5, 0], [1, 0, 4, 0], [0, 1, 0, 7]], [[1, 0, 6, 0], [0, 4, 0, 2], [1, 0, 0, 2]], [[3, 0, 0, 8], [3, 0, 0, 7], [2, 0, 0, 6]], [[0, 3, 6, 0], [1, 0, 3, 0], [1, 0, 1, 0]], [[3, 0, 7, 0], [0, 2, 0, 6], [2, 0, 3, 0]], [[1, 0, 7, 0], [0, 3, 5, 0], [0, 2, 0, 2]], [[3, 0, 7, 0], [0, 3, 0, 6], [0, 1, 2, 0]], [[2, 0, 3, 0], [2, 0, 2, 0], [2, 0, 1, 0]], [[3, 0, 0, 3], [0, 3, 3, 0], [2, 0, 2, 0]], [[4, 0, 0, 5], [3, 0, 6, 0], [0, 1, 5, 0]], [[0, 5, 8, 0], [4, 0, 7, 0], [2, 0, 0, 6]], [[0, 2, 7, 0], [0, 1, 0, 2], [0, 1, 0, 1]], [[4, 0, 7, 0], [0, 2, 5, 0], [3, 0, 3, 0]], [[3, 0, 0, 3], [0, 3, 0, 2], [2, 0, 0, 2]], [[0, 5, 0, 5], [0, 4, 4, 0], [0, 4, 0, 3]], [[4, 0, 0, 6], [3, 0, 3, 0], [2, 0, 2, 0]], [[4, 0, 0, 9], [2, 0, 5, 0], [0, 1, 0, 4]], [[3, 0, 9, 0], [0, 1, 0, 8], [3, 0, 0, 5]], [[3, 0, 0, 10], [0, 3, 2, 0], [0, 3, 1, 0]], [[0, 2, 0, 7], [0, 1, 6, 0], [1, 0, 2, 0]], [[0, 5, 6, 0], [0, 4, 0, 6], [0, 4, 0, 4]], [[2, 0, 0, 4], [0, 4, 7, 0], [1, 0, 0, 2]], [[3, 0, 7, 0], [3, 0, 5, 0], [0, 2, 0, 4]], [[0, 4, 9, 0], [3, 0, 9, 0], [0, 4, 8, 0]], [[3, 0, 0, 7], [0, 3, 0, 5], [0, 2, 6, 0]], [[0, 4, 10, 0], [0, 4, 9, 0], [1, 0, 10, 0]], [[0, 5, 5, 0], [0, 4, 2, 0], [0, 3, 0, 7]], [[0, 2, 3, 0], [0, 1, 2, 0], [2, 0, 2, 0]], [[0, 4, 0, 4], [2, 0, 5, 0], [2, 0, 0, 2]], [[1, 0, 3, 0], [0, 3, 2, 0], [1, 0, 0, 5]], [[0, 4, 0, 2], [0, 3, 0, 2], [3, 0, 3, 0]], [[2, 0, 8, 0], [2, 0, 5, 0], [0, 2, 4, 0]], [[0, 5, 4, 0], [3, 0, 3, 0], [2, 0, 3, 0]], [[2, 0, 7, 0], [1, 0, 4, 0], [1, 0, 0, 4]], [[0, 1, 7, 0], [4, 0, 7, 0], [3, 0, 0, 3]], [[0, 2, 0, 5], [0, 2, 5, 0], [0, 2, 4, 0]], [[3, 0, 6, 0], [0, 4, 5, 0], [0, 4, 0, 3]], [[2, 0, 3, 0], [1, 0, 3, 0], [1, 0, 2, 0]], [[0, 2, 5, 0], [1, 0, 0, 6], [1, 0, 3, 0]], [[4, 0, 3, 0], [0, 2, 0, 5], [0, 2, 3, 0]], [[0, 3, 4, 0], [0, 2, 0, 5], [1, 0, 3, 0]], [[0, 5, 9, 0], [0, 4, 0, 4], [0, 4, 0, 3]], [[3, 0, 0, 7], [0, 3, 0, 6], [0, 3, 1, 0]], [[0, 1, 10, 0], [4, 0, 10, 0], [0, 1, 0, 2]], [[0, 1, 0, 8], [4, 0, 8, 0], [4, 0, 7, 0]], [[3, 0, 0, 6], [2, 0, 3, 0], [2, 0, 0, 1]], [[0, 3, 0, 8], [0, 2, 5, 0], [1, 0, 0, 5]], [[4, 0, 0, 4], [4, 0, 9, 0], [0, 4, 8, 0]], [[0, 5, 6, 0], [0, 5, 0, 5], [0, 5, 5, 0]], [[0, 3, 0, 5], [1, 0, 0, 4], [1, 0, 3, 0]], [[0, 3, 3, 0], [0, 2, 1, 0], [3, 0, 1, 0]], [[0, 5, 0, 8], [0, 4, 0, 6], [2, 0, 3, 0]], [[4, 0, 0, 5], [3, 0, 8, 0], [3, 0, 0, 4]], [[2, 0, 0, 10], [0, 1, 4, 0], [0, 1, 0, 9]], [[0, 4, 1, 0], [0, 4, 0, 4], [4, 0, 1, 0]], [[0, 4, 7, 0], [2, 0, 0, 5], [0, 2, 4, 0]], [[0, 2, 5, 0], [0, 2, 4, 0], [2, 0, 3, 0]], [[0, 5, 0, 5], [0, 5, 7, 0], [2, 0, 6, 0]], [[3, 0, 4, 0], [2, 0, 3, 0], [0, 2, 0, 4]], [[0, 5, 7, 0], [1, 0, 0, 8], [1, 0, 3, 0]], [[4, 0, 0, 8], [0, 2, 0, 9], [0, 2, 0, 8]], [[3, 0, 0, 9], [2, 0, 6, 0], [2, 0, 5, 0]], [[4, 0, 7, 0], [0, 3, 0, 6], [0, 3, 0, 5]], [[5, 0, 0, 6], [3, 0, 6, 0], [2, 0, 6, 0]], [[0, 2, 3, 0], [0, 1, 0, 5], [0, 1, 0, 3]], [[0, 3, 0, 7], [0, 3, 0, 6], [0, 2, 7, 0]], [[0, 5, 8, 0], [0, 5, 7, 0], [0, 5, 0, 3]], [[0, 3, 7, 0], [1, 0, 0, 6], [1, 0, 0, 5]], [[0, 3, 6, 0], [0, 2, 4, 0], [2, 0, 3, 0]], [[2, 0, 9, 0], [1, 0, 0, 8], [0, 4, 0, 8]], [[4, 0, 2, 0], [0, 2, 1, 0], [1, 0, 1, 0]], [[4, 0, 0, 3], [4, 0, 9, 0], [4, 0, 8, 0]], [[5, 0, 7, 0], [0, 2, 0, 5], [1, 0, 0, 1]], [[2, 0, 0, 7], [2, 0, 5, 0], [2, 0, 2, 0]], [[5, 0, 0, 5], [5, 0, 0, 4], [0, 3, 7, 0]], [[5, 0, 8, 0], [4, 0, 0, 4], [0, 2, 0, 4]], [[0, 0, 0, 0]]]
